Route #1: 0 41 14 36 22 25 3 12 0
Route #2: 0 31 4 34 39 17 6 0
Route #3: 0 26 10 11 37 42 32 21 33 0
Route #4: 0 7 28 27 5 24 19 15 8 0
Route #5: 0 2 9 43 29 23 30 0
Route #6: 0 16 20 18 1 35 40 13 38 0
Cost 1027:
